n = 20;

R =
[|0,0,0,0,0,0,8,8,8,8,8,8,8,8,0,0,0,2,0,0,
 |0,0,0,0,0,0,0,8,8,8,8,8,8,8,8,0,0,2,0,0,
 |5,5,5,5,5,0,0,0,0,3,3,3,3,0,0,0,0,4,0,0,
 |0,0,0,0,5,5,5,5,5,0,0,0,3,0,7,0,0,4,0,0,
 |0,0,7,7,7,7,7,7,7,0,0,0,3,0,7,0,0,4,10,0,
 |0,0,2,2,8,0,0,0,5,5,5,5,5,0,7,0,0,4,10,0,
 |0,1,0,0,8,0,0,0,3,0,0,1,0,2,7,0,0,0,10,2,
 |0,9,0,0,8,0,0,0,3,0,0,0,0,2,7,0,0,0,10,2,
 |0,9,0,0,8,1,0,0,3,0,0,2,2,0,7,1,0,1,10,0,
 |0,9,0,0,8,0,0,0,0,0,0,0,1,0,7,0,0,1,10,4,
 |0,9,0,0,8,0,0,0,0,0,0,0,4,4,4,4,0,0,10,4,
 |0,9,0,0,8,9,9,9,9,9,9,9,9,9,0,0,0,0,10,4,
 |0,9,0,0,8,0,0,0,0,0,0,0,0,0,0,0,0,0,10,4,
 |0,9,0,0,0,0,0,0,0,0,0,0,0,0,0,0,0,0,10,0,
 |0,9,5,0,0,0,0,0,1,0,8,8,8,8,8,8,8,8,0,0,
 |0,9,5,0,1,4,4,4,4,0,0,0,0,6,6,6,6,6,6,0,
 |0,0,5,0,0,0,0,0,7,7,7,7,7,7,7,0,0,0,0,0,
 |0,0,5,0,0,0,0,6,6,6,6,6,6,0,0,0,0,0,0,0,
 |0,0,5,0,0,0,0,4,4,4,4,0,0,6,6,6,6,6,6,0,
 |0,0,0,0,0,0,0,0,0,0,1,0,0,0,0,0,0,0,0,0,
 |];

